c ind 409 408 407 406 405 404 403 402 401 400 399 398 397 396 395 394 393 392 391 390 389 388 387 386 385 384 383 382 381 380 379 378  0
c ind 33 32 31 30 29 28 27 26 25 24 23 22 21 20 19 18 17 16 15 14 13 12 11 10 9 8 7 6 5 4 3 2  0
c ind 583 582 581 580 579 578 577 576 575 574 573 572 571 570 569 568 567 566 565 564 563 562 561 560 559 558 557 556 555 554 553 552  0
c ind 503 502 501 500 499 498 497 496 495 494 493 492 491 490 489 488 487 486 485 484 483 482 481 480 479 478 477 476 475 474 473 472  0
c ind 240 239 238 237 236 235 234 233 232 231 230 229 228 227 226 225 224 223 222 221 220 219 218 217 216 215 214 213 212 211 210 209  0
c ind 303 302 301 300 299 298 297 296 295 294 293 292 291 290 289 288 287 286 285 284 283 282 281 280 279 278 277 276 275 274 273 272  0
p cnf 660 853
1 0
-2 0
-3 0
-4 0
-5 0
-6 0
-7 0
-8 0
-9 0
-10 0
-11 0
-12 0
-13 0
-14 0
-15 0
-16 0
-17 0
-18 0
-19 0
-20 0
-21 0
-22 0
-23 0
-24 0
-25 0
-26 0
27 0
28 0
-29 0
-30 0
31 0
-32 0
-33 0
34 0
35 0
36 0
37 0
38 0
39 0
40 0
41 0
42 0
43 0
44 0
45 0
46 0
47 0
48 0
49 0
50 0
51 0
52 0
53 0
54 0
55 0
56 0
57 0
58 0
59 0
-60 0
-61 0
-62 0
-63 0
-64 0
65 0
66 0
67 0
68 0
69 0
70 0
71 0
72 0
73 0
74 0
75 0
76 0
77 0
78 0
79 0
80 0
81 0
82 0
83 0
84 0
85 0
86 0
87 0
88 0
89 0
90 0
-91 0
-92 0
-93 0
-94 0
-95 0
96 0
97 0
98 0
99 0
100 0
101 0
102 0
103 0
104 0
105 0
106 0
107 0
108 0
109 0
110 0
111 0
112 0
113 0
114 0
115 0
116 0
117 0
118 0
119 0
120 0
121 0
122 0
-123 0
-124 0
-125 0
-126 0
127 0
128 0
129 0
130 0
131 0
132 0
133 0
134 0
135 0
136 0
137 0
138 0
139 0
140 0
141 0
142 0
143 0
144 0
145 0
146 0
147 0
148 0
149 0
150 0
151 0
-152 0
-153 0
-154 0
-155 0
-156 0
-157 0
158 0
-159 0
-160 0
-161 0
-162 0
-163 0
-164 0
-165 0
166 0
167 0
168 0
169 0
170 0
171 0
172 0
173 0
174 0
175 0
176 0
177 0
178 0
179 0
180 0
181 0
182 0
183 0
184 0
185 0
186 0
187 0
188 0
189 0
-190 0
-191 0
-192 0
-193 0
-194 0
-195 0
-196 0
-197 0
-198 0
-199 0
-200 0
-201 0
-202 0
-203 0
-204 0
-205 0
-206 0
-207 0
-208 0
-271 0
-272 0
-273 0
-274 0
-275 0
-276 0
-277 0
-278 0
-279 0
-280 0
-281 0
-282 0
-283 0
-284 0
-285 0
-286 0
-287 0
-288 0
-289 0
-290 0
-291 0
-292 0
-293 0
-294 0
-295 0
-296 0
-297 0
-298 0
-299 0
-300 0
-301 0
-302 0
-303 0
304 0
305 0
306 0
307 0
308 0
309 0
310 0
311 0
312 0
313 0
314 0
315 0
316 0
317 0
318 0
319 0
320 0
321 0
322 0
323 0
324 0
325 0
326 0
327 0
328 0
329 0
330 0
331 0
332 0
333 0
334 0
-365 0
-372 0
373 0
374 0
375 0
376 0
377 0
-440 0
-471 0
-472 0
-473 0
-474 0
-475 0
-476 0
-477 0
-478 0
-479 0
-480 0
-481 0
-482 0
-483 0
-484 0
-485 0
-486 0
-487 0
-488 0
-489 0
-490 0
-491 0
-492 0
-493 0
-494 0
-495 0
-496 0
-497 0
-498 0
-499 0
-500 0
-501 0
-502 0
-503 0
504 0
505 0
506 0
507 0
508 0
509 0
510 0
511 0
512 0
513 0
514 0
515 0
516 0
517 0
518 0
519 0
520 0
521 0
522 0
523 0
524 0
525 0
526 0
527 0
528 0
529 0
530 0
531 0
532 0
533 0
534 0
-535 0
-536 0
-537 0
-538 0
-539 0
-540 0
-541 0
-542 0
-543 0
-544 0
-545 0
-546 0
-547 0
548 0
-549 0
-550 0
-551 0
-552 0
-553 0
-554 0
-555 0
-556 0
-557 0
-558 0
-559 0
-560 0
-561 0
-562 0
-563 0
-564 0
-565 0
-566 0
-567 0
-568 0
-569 0
-570 0
-571 0
-572 0
-573 0
-574 0
-575 0
-576 0
-577 0
578 0
-579 0
-580 0
581 0
-582 0
583 0
584 0
585 0
586 0
587 0
588 0
589 0
590 0
591 0
592 0
593 0
594 0
595 0
596 0
597 0
598 0
599 0
600 0
601 0
602 0
603 0
604 0
605 0
606 0
607 0
608 0
-609 0
-610 0
-611 0
-612 0
-613 0
-614 0
615 0
616 0
617 0
618 0
619 0
620 0
621 0
622 0
623 0
624 0
625 0
626 0
627 0
628 0
629 0
630 0
631 0
632 0
633 0
634 0
635 0
636 0
637 0
638 0
639 0
640 0
641 0
642 0
643 0
644 0
645 0
-646 0
-647 0
-648 0
-649 0
-650 0
-651 0
-652 0
-653 0
-654 0
-655 0
-656 0
-657 0
-658 0
-659 0
-660 0
-209 -241 0
-209 -335 0
209 210 241 0
209 210 335 0
-210 -241 0
-210 -335 0
-211 -242 0
-211 -336 0
211 -241 242 0
211 -335 336 0
-212 -243 0
-212 -337 0
212 -242 243 0
212 -336 337 0
-213 -244 0
-213 -338 0
213 -243 244 0
213 -337 338 0
-214 -245 0
-214 -339 0
214 -244 245 0
214 -338 339 0
-215 -246 0
-215 -340 0
215 -245 246 0
215 -339 340 0
-216 -247 0
-216 -341 0
216 -246 247 0
216 -340 341 0
-217 -248 0
-217 -342 0
217 -247 248 0
217 -341 342 0
-218 -249 0
-218 -343 0
218 -248 249 0
218 -342 343 0
-219 -250 0
-219 -344 0
219 -249 250 0
219 -343 344 0
-220 -251 0
-220 -345 0
220 -250 251 0
220 -344 345 0
-221 -252 0
-221 -346 0
221 -251 252 0
221 -345 346 0
-222 -253 0
-222 -347 0
222 -252 253 0
222 -346 347 0
-223 -254 0
-223 -348 0
223 -253 254 0
223 -347 348 0
-224 -255 0
-224 -349 0
224 -254 255 0
224 -348 349 0
-225 -256 0
-225 -350 0
225 -255 256 0
225 -349 350 0
-226 -257 0
-226 -351 0
226 -256 257 0
226 -350 351 0
-227 -258 0
-227 -352 0
227 -257 258 0
227 -351 352 0
-228 -259 0
-228 -353 0
228 -258 259 0
228 -352 353 0
-229 -260 0
-229 -354 0
229 -259 260 0
229 -353 354 0
-230 -261 0
-230 -355 0
230 -260 261 0
230 -354 355 0
-231 -262 0
-231 -356 0
231 -261 262 0
231 -355 356 0
-232 -263 0
-232 -357 0
232 -262 263 0
232 -356 357 0
-233 -264 0
-233 -358 0
233 -263 264 0
233 -357 358 0
-234 -265 0
-234 -366 0
-234 -358 359 0
234 -359 0
234 -264 265 0
234 -358 366 0
-235 -266 0
-235 -360 0
-235 -366 367 0
235 -367 0
235 -265 266 0
235 -359 360 0
-236 -267 0
-236 -368 0
-236 -360 361 0
236 -361 0
236 -266 267 0
236 -367 368 0
-237 -268 0
-237 -369 0
-237 -361 362 0
237 -362 0
237 -267 268 0
237 -368 369 0
-238 -269 0
-238 -362 363 0
-238 -369 370 0
238 -363 0
238 -370 0
238 -268 269 0
-239 -270 0
-239 -364 0
-239 -371 0
239 -269 270 0
239 -363 364 0
239 -370 371 0
-240 -371 0
240 -270 0
240 -364 0
241 -242 0
242 -243 0
243 -244 0
244 -245 0
245 -246 0
246 -247 0
247 -248 0
248 -249 0
249 -250 0
250 -251 0
251 -252 0
252 -253 0
253 -254 0
254 -255 0
255 -256 0
256 -257 0
257 -258 0
258 -259 0
259 -260 0
260 -261 0
261 -262 0
262 -263 0
263 -264 0
264 -265 0
265 -266 0
266 -267 0
267 -268 0
268 -269 0
269 -270 0
335 -336 0
336 -337 0
337 -338 0
338 -339 0
339 -340 0
340 -341 0
341 -342 0
342 -343 0
343 -344 0
344 -345 0
345 -346 0
346 -347 0
347 -348 0
348 -349 0
349 -350 0
350 -351 0
351 -352 0
352 -353 0
353 -354 0
354 -355 0
355 -356 0
356 -357 0
357 -358 0
358 -359 0
358 -366 0
359 -360 0
360 -361 0
361 -362 0
362 -363 0
363 -364 0
366 -367 0
367 -368 0
368 -369 0
369 -370 0
370 -371 0
-378 -410 0
-378 -441 0
378 379 410 0
378 379 441 0
-379 -410 0
-379 -441 0
-380 -411 0
-380 -442 0
380 -410 411 0
380 -441 442 0
-381 -412 0
-381 -443 0
381 -411 412 0
381 -442 443 0
-382 -413 0
-382 -444 0
382 -412 413 0
382 -443 444 0
-383 -414 0
-383 -445 0
383 -413 414 0
383 -444 445 0
-384 -415 0
-384 -446 0
384 -414 415 0
384 -445 446 0
-385 -416 0
-385 -447 0
385 -415 416 0
385 -446 447 0
-386 -417 0
-386 -448 0
386 -416 417 0
386 -447 448 0
-387 -418 0
-387 -449 0
387 -417 418 0
387 -448 449 0
-388 -419 0
-388 -450 0
388 -418 419 0
388 -449 450 0
-389 -420 0
-389 -451 0
389 -419 420 0
389 -450 451 0
-390 -421 0
-390 -452 0
390 -420 421 0
390 -451 452 0
-391 -422 0
-391 -453 0
391 -421 422 0
391 -452 453 0
-392 -423 0
-392 -454 0
392 -422 423 0
392 -453 454 0
-393 -424 0
-393 -455 0
393 -423 424 0
393 -454 455 0
-394 -425 0
-394 -456 0
394 -424 425 0
394 -455 456 0
-395 -426 0
-395 -457 0
395 -425 426 0
395 -456 457 0
-396 -427 0
-396 -458 0
396 -426 427 0
396 -457 458 0
-397 -428 0
-397 -459 0
397 -427 428 0
397 -458 459 0
-398 -429 0
-398 -460 0
398 -428 429 0
398 -459 460 0
-399 -430 0
-399 -461 0
399 -429 430 0
399 -460 461 0
-400 -431 0
-400 -462 0
400 -430 431 0
400 -461 462 0
-401 -432 0
-401 -463 0
401 -431 432 0
401 -462 463 0
-402 -433 0
-402 -464 0
402 -432 433 0
402 -463 464 0
-403 -434 0
-403 -465 0
403 -433 434 0
403 -464 465 0
-404 -434 435 0
-404 -465 466 0
404 -435 0
404 -466 0
-405 -436 0
-405 -467 0
405 -435 436 0
405 -466 467 0
-406 -437 0
-406 -468 0
406 -436 437 0
406 -467 468 0
-407 -469 0
-407 -437 438 0
407 -438 0
407 -468 469 0
-408 -438 439 0
-408 -469 470 0
408 -439 0
408 -470 0
-409 -439 0
409 -470 0
410 -411 0
411 -412 0
412 -413 0
413 -414 0
414 -415 0
415 -416 0
416 -417 0
417 -418 0
418 -419 0
419 -420 0
420 -421 0
421 -422 0
422 -423 0
423 -424 0
424 -425 0
425 -426 0
426 -427 0
427 -428 0
428 -429 0
429 -430 0
430 -431 0
431 -432 0
432 -433 0
433 -434 0
434 -435 0
435 -436 0
436 -437 0
437 -438 0
438 -439 0
441 -442 0
442 -443 0
443 -444 0
444 -445 0
445 -446 0
446 -447 0
447 -448 0
448 -449 0
449 -450 0
450 -451 0
451 -452 0
452 -453 0
453 -454 0
454 -455 0
455 -456 0
456 -457 0
457 -458 0
458 -459 0
459 -460 0
460 -461 0
461 -462 0
462 -463 0
463 -464 0
464 -465 0
465 -466 0
466 -467 0
467 -468 0
468 -469 0
469 -470 0
